Route #1: 17 47 35 7 59 27
Route #2: 28 44 33 13 10 52 11 2 23 29 37 43 3 5 45 49 50 54 31
Route #3: 38 14 30 36 9 58 57 55 6 46
Route #4: 19 20 56 53 16 40 18 8
Route #5: 21 4 41 12 22 32 25
Route #6: 
Route #7: 
Route #8: 24 51 15 1 34 60 39
Route #9: 42 48 26
cost 1788.3512438465152
